[2026-03-24T17:08:46.361Z] Pipeline "set_vm-4-t1_vm-4-t1_s021_g003" → 2026_03_24_17_08_46_set_vm-4-t1_vm-4-t1_s021_g003_max.sol
Set parameter Username
Set parameter LicenseID to value 2797659
Set parameter LogFile to value "gurobi.log"
Using license file /opt/gurobi/gurobi.lic
Academic license - for non-commercial use only - expires 2027-03-24

Gurobi Optimizer version 13.0.1 build v13.0.1rc0 (linux64 - "Ubuntu 24.04.4 LTS")
Copyright (c) 2026, Gurobi Optimization, LLC

Warning: Duplicate section found (read 'binary') - Is a variable name equal to an LP file format keyword?
Warning: Duplicate section found (read 'binary') - Is a variable name equal to an LP file format keyword?
Warning: Duplicate section found (read 'binary') - Is a variable name equal to an LP file format keyword?
Warning: Duplicate section found (read 'binary') - Is a variable name equal to an LP file format keyword?
Warning: Duplicate section found (read 'binary') - Is a variable name equal to an LP file format keyword?
Warning: Duplicate section found (read 'binary') - Is a variable name equal to an LP file format keyword?
Warning: Duplicate section found (read 'binary') - Is a variable name equal to an LP file format keyword?
Warning: Duplicate section found (read 'binary') - Is a variable name equal to an LP file format keyword?
Warning: Duplicate section found (read 'binary') - Is a variable name equal to an LP file format keyword?
Warning: Duplicate section found (read 'binary') - Is a variable name equal to an LP file format keyword?
Warning: Further warnings of this type will be omitted.
Read LP format model from file /root/bgw/data/uploads/2026_03_24_17_08_46_set_vm-4-t1_vm-4-t1_s021_g003_max.lp
Reading time = 0.05 seconds
: 42031 rows, 1404 columns, 128226 nonzeros

Using Gurobi shared library /opt/gurobi1301/linux64/lib/libgurobi.so.13.0.1

CPU model: AMD EPYC-Genoa Processor, instruction set [SSE2|AVX|AVX2|AVX512]
Thread count: 16 physical cores, 16 logical processors, using up to 16 threads

Optimize a model with 42031 rows, 1404 columns and 128226 nonzeros (Max)
Model fingerprint: 0xf1bebf93
Model has 6 linear objective coefficients
Variable types: 57 continuous, 1347 integer (1347 binary)
Coefficient statistics:
  Matrix range     [1e+00, 5e+01]
  Objective range  [1e+00, 1e+00]
  Bounds range     [1e+00, 1e+00]
  RHS range        [1e+00, 5e+01]

Found heuristic solution: objective 6.0000000
Presolve removed 360 rows and 116 columns
Presolve time: 0.14s
Presolved: 41671 rows, 1288 columns, 125253 nonzeros
Variable types: 0 continuous, 1288 integer (1283 binary)
Found heuristic solution: objective 10.0000000
Root relaxation presolved: 20846 rows, 22113 columns, 83603 nonzeros


Root relaxation: objective 2.700000e+01, 319 iterations, 0.10 seconds (0.14 work units)

    Nodes    |    Current Node    |     Objective Bounds      |     Work
 Expl Unexpl |  Obj  Depth IntInf | Incumbent    BestBd   Gap | It/Node Time

     0     0   27.00000    0   14   10.00000   27.00000   170%     -    0s
H    0     0                      13.0000000   27.00000   108%     -    0s
H    0     0                      16.0000000   27.00000  68.8%     -    0s
H    0     0                      17.0000000   27.00000  58.8%     -    0s
     0     0   27.00000    0   13   17.00000   27.00000  58.8%     -    0s
     0     0   27.00000    0   14   17.00000   27.00000  58.8%     -    0s
     0     0   27.00000    0   14   17.00000   27.00000  58.8%     -    0s
     0     0   27.00000    0   12   17.00000   27.00000  58.8%     -    0s
     0     0   27.00000    0   12   17.00000   27.00000  58.8%     -    0s
     0     0   27.00000    0   12   17.00000   27.00000  58.8%     -    0s
     0     0   27.00000    0    7   17.00000   27.00000  58.8%     -    0s
     0     0   27.00000    0   13   17.00000   27.00000  58.8%     -    0s
     0     0   27.00000    0   12   17.00000   27.00000  58.8%     -    1s
     0     0   27.00000    0   14   17.00000   27.00000  58.8%     -    1s
     0     0   27.00000    0   14   17.00000   27.00000  58.8%     -    1s
     0     0   27.00000    0   14   17.00000   27.00000  58.8%     -    1s
     0     0   27.00000    0   14   17.00000   27.00000  58.8%     -    1s
     0     0   26.95918    0   14   17.00000   26.95918  58.6%     -    1s
     0     0   26.95918    0   13   17.00000   26.95918  58.6%     -    1s
     0     0   26.00000    0   13   17.00000   26.00000  52.9%     -    1s
     0     0   26.00000    0   13   17.00000   26.00000  52.9%     -    1s
     0     2   26.00000    0   13   17.00000   26.00000  52.9%     -    1s
   162    40 infeasible   10        17.00000   26.00000  52.9%   530    5s

Cutting planes:
  Gomory: 8
  Cover: 1
  MIR: 4
  StrongCG: 1
  Inf proof: 3
  Zero half: 1

Explored 338 nodes (174099 simplex iterations) in 8.16 seconds (16.31 work units)
Thread count was 16 (of 16 available processors)

Solution count 5: 17 16 13 ... 6

Optimal solution found (tolerance 1.00e-04)
Best objective 1.700000000000e+01, best bound 1.700000000000e+01, gap 0.0000%

Wrote result file '/root/bgw/data/results/2026_03_24_17_08_46_set_vm-4-t1_vm-4-t1_s021_g003_max.sol'

